% File represents an instance of a Composite Structure problem to be solved by a CP framework
% Created on 2025-03-26 10:41:39.800
T = 50;
n = 25;
m = 40;
edges = [(1, 2),
(6, 7),
(11, 12),
(16, 17),
(21, 22),
(2, 3),
(7, 8),
(12, 13),
(18, 17),
(22, 23),
(3, 4),
(8, 9),
(13, 14),
(18, 19),
(23, 24),
(4, 5),
(9, 10),
(14, 15),
(20, 19),
(25, 24),
(6, 1),
(11, 6),
(11, 16),
(21, 16),
(7, 2),
(12, 7),
(12, 17),
(22, 17),
(8, 3),
(13, 8),
(18, 13),
(18, 23),
(9, 4),
(14, 9),
(14, 19),
(19, 24),
(10, 5),
(15, 10),
(20, 15),
(20, 25)];
counts = [|8, 10, 8, 16,
|8, 6, 8, 16,
|8, 2, 8, 14,
|8, 2, 8, 12,
|6, 2, 6, 10,
|8, 10, 8, 18,
|8, 8, 8, 18,
|8, 4, 8, 18,
|8, 2, 8, 18,
|8, 2, 8, 12,
|8, 12, 8, 22,
|8, 8, 8, 20,
|8, 8, 8, 18,
|8, 6, 8, 18,
|8, 2, 8, 16,
|8, 8, 8, 20,
|8, 6, 8, 18,
|8, 10, 8, 18,
|8, 4, 8, 18,
|8, 4, 8, 20,
|10, 8, 10, 20,
|8, 6, 8, 20,
|8, 4, 8, 18,
|8, 2, 8, 16,
|8, 2, 8, 18|];
